c ---- [ banner ] ------------------------------------------------------------
c
c Kissat SAT Solver
c 
c Copyright (c) 2021-2024 Armin Biere University of Freiburg
c Copyright (c) 2019-2021 Armin Biere Johannes Kepler University Linz
c 
c Version 4.0.1 43f02cf3e992cb44653b35e5cb26f93281552ae0
c gcc (Ubuntu 13.2.0-23ubuntu4) 13.2.0 -W -Wall -O3 -DNDEBUG
c Thu Sep 12 12:27:46 CEST 2024 Linux abryzen9 6.8.0-41-generic x86_64
c
c ---- [ parsing ] -----------------------------------------------------------
c
c opened and reading DIMACS file:
c
c   /data/artifact/AMulet2.0_artifact/exp4/cnf_sopb_64/64_64_U_SP_WT_CK_GenMul_sopb.cnf
c
c parsed 'p cnf 29371 130035' header
c closing input after reading 2604316 bytes (2 MB)
c finished parsing after 0.02 seconds
c
c ---- [ options ] -----------------------------------------------------------
c
c --stable=0                       (different from default '1')
c
c ---- [ solving ] -----------------------------------------------------------
c
c  seconds switched rate     size/glue tier1  binary           remaining
c         MB reductions conflicts size  tier2     irredundant
c          level restarts redundant glue  trail           variables
c
c *  0.02 10 0 0 0  0 0   0   0 0.0 0 0 0 0 0% 11765 118268 29368 100%
c (  0.04 12 0 0 0  0 0   0   0 0.0 0 0 0 0 0% 11765 118268 29368 100%
c .  0.05 13 0 0 0  0 0   0   0 0.0 0 0 0 0 0% 11761 118268 29368 100%
c c  0.11 18 0 0 0  0 0   0   0 0.0 0 0 0 0 0% 16597 108862 26953 92%
c d  0.12 18 0 0 0  0 0   0   0 0.0 0 0 0 0 0% 11767 108862 26953 92%
c =  0.16 18 0 0 0  0 0   0   0 0.0 0 0 0 0 0% 11807 108858 26855 91%
c d  0.16 18 0 0 0  0 0   0   0 0.0 0 0 0 0 0% 11607 108858 26855 91%
c f  0.29 17 0 0 0  0 0   0   0 0.0 0 0 0 0 0% 17013 100360 29902 102%
c e  0.51 24 0 0 0  0 0   0   0 0.0 0 0 0 0 0% 10804 109029 20787 71%
c )  0.51 24 0 0 0  0 0   0   0 0.0 0 0 0 0 0% 10804 109029 20787 71%
c {  0.54 24 0 0 0  0 0   0   0 0.0 0 0 2 6 0% 10804 109029 20787 71%
c i  0.55 24 113 0 0 50 27 184  98 1.8 5 3 2 3 4% 10870 109022 20786 71%
c -  0.81 24 121 0 1 328 38 1000 640 3.1 14 5 3 9 16% 10931 109021 20786 71%
c -  1.12 25 159 0 2 504 41 2001 1352 3.3 17 5 3 9 22% 10970 109004 20786 71%
c i  1.21 25 176 0 2 563 41 2403 1640 3.4 17 5 3 8 23% 11001 109004 20785 71%
c i  1.21 25 183 0 2 563 41 2418 1652 3.3 17 5 3 8 23% 11002 109004 20784 71%
c c  1.28 23 221 0 2 563 40 2504 1718 3.3 17 5 3 8 23% 11018 108936 20770 71%
c d  1.29 23 221 0 2 563 40 2504 1716 3.3 17 5 3 8 23% 10992 108934 20770 71%
c d  1.29 23 221 0 2 563 40 2504 1716 3.3 17 5 3 8 23% 10990 108934 20769 71%
c b  1.30 23 221 0 2 563 40 2504 1716 3.3 17 5 3 8 23% 10990 108934 20767 71%
c
c  seconds   switched   rate       size/glue tier1    binary           remaining
c         MB  reductions conflicts       size  tier2      irredundant
c           level restarts    redundant    glue   trail           variables
c
c u  1.31 23 221 0 2 563 40 2504 1386 3.3 17 5 3 8 23% 10999 108934 20767 71%
c v  1.33 23 221 0 2 563 40 2504 1210 3.3 17 5 3 8 23% 10999 108934 20767 71%
c w  1.35 23 221 0 2 563 40 2504 1203 3.3 17 5 3 8 23% 10999 108934 20767 71%
c x  1.37 23 221 0 2 563 40 2504 1203 3.3 17 5 3 8 23% 11099 108728 20767 71%
c =  1.45 23 221 0 2 563 40 2504 1203 3.3 17 5 3 8 23% 11497 108726 20568 70%
c d  1.45 23 221 0 2 563 40 2504 1199 3.3 17 5 3 8 23% 11094 108726 20568 70%
c t  1.46 23 221 0 2 563 40 2504 1199 3.3 17 5 3 8 23% 11077 108726 20568 70%
c f  1.48 23 221 0 2 563 40 2504 1199 3.3 17 5 3 8 23% 11705 107465 21164 72%
c u  1.50 23 221 0 2 563 40 2504 1167 3.3 17 5 3 8 23% 11706 107465 21164 72%
c v  1.51 23 221 0 2 563 40 2504 1117 3.3 17 5 3 8 23% 11706 107465 21164 72%
c w  1.53 23 221 0 2 563 40 2504 1110 3.3 17 5 3 8 23% 11706 107465 21164 72%
c x  1.54 24 221 0 2 563 40 2504 1110 3.3 17 5 3 8 23% 11708 107258 21163 72%
c =  1.60 24 221 0 2 563 40 2504 1110 3.3 17 5 3 8 23% 11798 107258 21118 72%
c d  1.61 24 221 0 2 563 40 2504 1104 3.3 17 5 3 8 23% 11708 107257 21118 72%
c f  1.64 24 221 0 2 563 40 2504 1104 3.3 17 5 3 8 23% 12783 105632 21659 74%
c i  1.64 24 221 0 2 563 40 2504 1104 3.3 17 5 3 8 23% 12783 105632 21659 74%
c -  1.89 24 289 0 3 649 39 3415 1697 3.1 16 5 3 8 22% 12811 105627 21659 74%
c i  1.91 24 290 0 3 656 39 3493 1768 3.1 15 5 3 8 22% 12814 105627 21658 74%
c -  2.34 24 287 0 4 973 44 5147 2794 3.6 19 5 3 9 24% 12879 105623 21658 74%
c -  2.93 25 329 0 5 1196 44 7149 3892 4.2 24 6 2 9 25% 12981 105613 21658 74%
c
c  seconds   switched    rate       size/glue tier1    binary           remaining
c         MB  reductions  conflicts       size  tier2      irredundant
c           level  restarts    redundant    glue   trail           variables
c
c c  3.21 25 323 0 5 1240 44 7712 4369 4.2 25 6 2 9 25% 13010 105497 21630 74%
c d  3.21 25 323 0 5 1240 44 7712 4365 4.2 25 6 2 9 25% 12955 105496 21630 74%
c d  3.22 25 323 0 5 1240 44 7712 4365 4.2 25 6 2 9 25% 12953 105494 21629 74%
c u  3.24 25 323 0 5 1240 44 7712 3846 4.2 25 6 2 9 25% 12973 105494 21629 74%
c v  3.29 25 323 0 5 1240 44 7712 3327 4.2 25 6 2 9 25% 12975 105494 21629 74%
c w  3.34 25 323 0 5 1240 44 7712 3326 4.2 25 6 2 9 25% 12975 105494 21629 74%
c x  3.38 25 323 0 5 1240 44 7712 3326 4.2 25 6 2 9 25% 12979 105399 21629 74%
c =  3.53 25 323 0 5 1240 44 7712 3326 4.2 25 6 2 9 25% 13809 105399 21214 72%
c d  3.54 25 323 0 5 1240 44 7712 3318 4.2 25 6 2 9 25% 12814 105399 21212 72%
c t  3.56 25 323 0 5 1240 44 7712 3318 4.2 25 6 2 9 25% 12799 105399 21212 72%
c f  3.61 25 323 0 5 1240 44 7712 3318 4.2 25 6 2 9 25% 13765 103947 21697 74%
c u  3.73 25 323 0 5 1240 44 7712 3215 4.2 25 6 2 9 25% 13768 103947 21697 74%
c v  3.76 25 323 0 5 1240 44 7712 3111 4.2 25 6 2 9 25% 13768 103947 21697 74%
c w  3.84 25 323 0 5 1240 44 7712 3095 4.2 25 6 2 9 25% 13768 103947 21697 74%
c =  3.98 25 323 0 5 1240 44 7712 3095 4.2 25 6 2 9 25% 14442 103947 21360 73%
c d  3.99 25 323 0 5 1240 44 7712 3092 4.2 25 6 2 9 25% 13596 103947 21360 73%
c t  4.02 25 323 0 5 1240 44 7712 3092 4.2 25 6 2 9 25% 13566 103947 21360 73%
c f  4.08 25 323 0 5 1240 44 7712 3092 4.2 25 6 2 9 25% 15763 100641 22466 76%
c -  4.60 25 364 0 6 1422 44 9386 3983 4.3 27 6 2 8 24% 15817 100640 22466 76%
c o  4.81 25 369 0 6 1493 43 10014 4546 4.3 26 6 2 8 25% 15839 100639 22466 76%
c
c  seconds   switched    rate        size/glue tier1    binary           remaining
c         MB  reductions   conflicts       size  tier2      irredundant
c           level  restarts     redundant    glue   trail           variables
c
c -  5.33 25 392 0 7 1675 42 11835 5468 4.5 27 6 2 8 25% 15953 100635 22466 76%
c s  5.55 25 389 0 7 1725 42 12513 6039 4.4 27 6 2 8 25% 15986 96511 22466 76%
c e  5.69 25 389 0 7 1725 42 12513 6039 4.4 27 6 2 8 25% 15212 97152 21768 74%
c s  5.69 25 389 0 7 1725 42 12513 6039 4.4 27 6 2 8 25% 15226 96784 21768 74%
c e  5.71 25 389 0 7 1725 42 12513 6039 4.4 27 6 2 8 25% 15049 96882 21684 74%
c ^  5.71 25 389 0 7 1725 42 12513 6039 4.4 27 6 2 8 25% 15049 96882 21684 74%
c i  6.23 25 399 0 7 1896 41 14387 7420 4.5 28 6 2 8 25% 15108 96880 21683 74%
c i  6.23 25 398 0 7 1896 41 14426 7455 4.5 28 6 2 8 25% 15110 96880 21682 74%
c -  6.24 25 398 0 8 1896 41 14480 6655 4.5 28 6 2 8 24% 15114 96878 21682 74%
c d  6.61 25 393 0 8 2010 40 15795 7780 4.4 28 6 2 8 25% 14862 96875 21511 73%
c d  6.62 25 393 0 8 2010 40 15795 7780 4.4 28 6 2 8 25% 14860 96875 21510 73%
c u  6.66 25 393 0 8 2010 40 15795 6730 4.4 28 6 2 8 25% 14880 96875 21510 73%
c v  6.73 25 393 0 8 2010 40 15795 5877 4.4 28 6 2 8 25% 14881 96875 21510 73%
c w  6.80 25 393 0 8 2010 40 15795 5876 4.4 28 6 2 8 25% 14881 96875 21510 73%
c x  6.84 25 393 0 8 2010 40 15795 5876 4.4 28 6 2 8 25% 14937 96707 21510 73%
c =  7.07 25 393 0 8 2010 40 15795 5876 4.4 28 6 2 8 25% 15759 96700 21095 72%
c d  7.08 25 393 0 8 2010 40 15795 5837 4.4 28 6 2 8 25% 14846 96699 21095 72%
c t  7.10 25 393 0 8 2010 40 15795 5837 4.4 28 6 2 8 25% 14748 96699 21095 72%
c f  7.17 25 393 0 8 2010 40 15795 5837 4.4 28 6 2 8 25% 14798 96584 21127 72%
c u  7.27 25 393 0 8 2010 40 15795 5611 4.4 28 6 2 8 25% 14796 96584 21127 72%
c
c  seconds   switched    rate        size/glue tier1    binary          remaining
c         MB  reductions   conflicts       size  tier2      irredundant
c           level  restarts     redundant    glue   trail          variables
c
c v  7.31 25 393 0 8 2010 40 15795 5504 4.4 28 6 2 8 25% 14796 96584 21127 72%
c w  7.41 25 393 0 8 2010 40 15795 5479 4.4 28 6 2 8 25% 14796 96584 21127 72%
c x  7.45 25 393 0 8 2010 40 15795 5479 4.4 28 6 2 8 25% 14846 94992 21127 72%
c =  7.69 25 393 0 8 2010 40 15795 5479 4.4 28 6 2 8 25% 16352 94991 20374 69%
c d  7.70 25 393 0 8 2010 40 15795 5468 4.4 28 6 2 8 25% 14227 94991 20374 69%
c t  7.72 25 393 0 8 2010 40 15795 5468 4.4 28 6 2 8 25% 14210 94991 20374 69%
c f  7.75 25 393 0 8 2010 40 15795 5468 4.4 28 6 2 8 25% 14212 94985 20375 69%
c -  8.07 25 407 0 9 2100 39 17309 6017 4.3 27 6 2 8 25% 14269 94982 20375 69%
c o  8.38 25 390 0 9 2173 36 20038 8172 4.1 25 6 2 8 24% 14362 94980 20375 69%
c -  8.50 25 386 0 10 2230 36 20309 7630 4.2 25 6 2 7 24% 14368 94980 20375 69%
c -  9.80 25 366 0 11 2621 36 23471 9206 4.3 28 6 2 6 25% 14461 94980 20375 69%
c s 10.26 25 357 0 11 2753 35 25018 10567 4.3 28 6 2 6 25% 14499 91795 20375 69%
c e 10.39 25 357 0 11 2753 35 25018 10567 4.3 28 6 2 6 25% 10999 95961 18487 63%
c 2 10.39 25 357 0 11 2753 35 25018 10567 4.3 28 6 2 6 25% 10998 95961 18487 63%
c s 10.40 25 357 0 11 2753 35 25018 10567 4.3 28 6 2 6 25% 11028 95717 18487 63%
c e 10.41 25 357 0 11 2753 35 25018 10567 4.3 28 6 2 6 25% 11009 95742 18480 63%
c ^ 10.41 25 357 0 11 2753 35 25018 10567 4.3 28 6 2 6 25% 11009 95742 18480 63%
c - 10.95 25 348 0 12 2931 35 26787 9397 4.3 28 7 2 6 25% 11051 95742 18480 63%
c d 10.96 25 350 0 12 2931 35 26924 9491 4.3 28 7 2 6 25% 10773 95741 18305 62%
c u 11.03 25 350 0 12 2931 35 26924 8187 4.3 28 7 2 6 25% 10792 95741 18305 62%
c
c  seconds   switched     rate        size/glue tier1    binary          remaining
c         MB   reductions   conflicts       size  tier2      irredundant
c           level   restarts     redundant    glue   trail          variables
c
c v 11.08 25 350 0 12 2931 35 26924 7377 4.3 28 7 2 6 25% 10794 95741 18305 62%
c w 11.09 25 350 0 12 2931 35 26924 7377 4.3 28 7 2 6 25% 10794 95741 18305 62%
c x 11.19 25 350 0 12 2931 35 26924 7375 4.3 28 7 2 6 25% 10858 94225 18305 62%
c = 11.48 25 350 0 12 2931 35 26924 7375 4.3 28 7 2 6 25% 14328 94219 16570 56%
c d 11.49 25 350 0 12 2931 35 26924 7182 4.3 28 7 2 6 25% 10768 94219 16567 56%
c t 11.51 25 350 0 12 2931 35 26924 7182 4.3 28 7 2 6 25% 10670 94219 16567 56%
c f 11.59 25 350 0 12 2931 35 26924 7182 4.3 28 7 2 6 25% 10727 94040 16604 57%
c u 11.65 25 350 0 12 2931 35 26924 6796 4.3 28 7 2 6 25% 10729 94040 16604 57%
c v 11.69 25 350 0 12 2931 35 26924 6677 4.3 28 7 2 6 25% 10729 94040 16604 57%
c w 11.69 25 350 0 12 2931 35 26924 6676 4.3 28 7 2 6 25% 10729 94040 16604 57%
c x 11.82 25 350 0 12 2931 35 26924 6676 4.3 28 7 2 6 25% 10732 86784 16604 57%
c = 12.09 25 350 0 12 2931 35 26924 6676 4.3 28 7 2 6 25% 12174 86784 15883 54%
c d 12.10 25 350 0 12 2931 35 26924 6591 4.3 28 7 2 6 25% 10673 86784 15883 54%
c t 12.12 25 350 0 12 2931 35 26924 6591 4.3 28 7 2 6 25% 10624 86784 15883 54%
c f 12.15 25 350 0 12 2931 35 26924 6591 4.3 28 7 2 6 25% 10636 86745 15892 54%
c - 13.02 25 337 0 13 3246 35 30251 8594 4.3 28 7 2 6 25% 10694 86744 15892 54%
c - 13.44 25 333 0 14 3386 33 33856 10613 4.2 27 6 2 6 24% 10754 86744 15892 54%
c - 14.60 25 316 0 15 3835 33 37597 12225 4.1 28 7 2 6 25% 10818 86743 15892 54%
c o 14.93 25 312 0 15 3948 31 40203 14322 4.0 27 7 2 6 24% 10893 86740 15892 54%
c c 15.10 25 310 0 15 4000 31 41250 15180 4.0 26 7 2 6 24% 11094 85663 15718 54%
c
c  seconds   switched     rate         size/glue tier1    binary          remaining
c         MB   reductions   conflicts        size  tier2      irredundant
c           level   restarts      redundant    glue   trail          variables
c
c d 15.11 25 310 0 15 4000 31 41250 14747 4.0 26 7 2 6 24% 10746 85663 15718 54%
c u 15.18 25 310 0 15 4000 31 41250 12190 4.0 26 7 2 6 24% 10770 85663 15718 54%
c v 15.24 25 310 0 15 4000 31 41250 11335 4.0 26 7 2 6 24% 10773 85663 15718 54%
c w 15.29 25 310 0 15 4000 31 41250 11335 4.0 26 7 2 6 24% 10773 85663 15718 54%
c x 15.36 25 310 0 15 4000 31 41250 11335 4.0 26 7 2 6 24% 10774 80129 15718 54%
c d 15.60 25 310 0 15 4000 31 41250 11329 4.0 26 7 2 6 24% 10754 80129 15708 53%
c t 15.62 25 310 0 15 4000 31 41250 11329 4.0 26 7 2 6 24% 10742 80129 15708 53%
c f 15.63 25 310 0 15 4000 31 41250 11329 4.0 26 7 2 6 24% 10742 80121 15710 53%
c u 15.71 25 310 0 15 4000 31 41250 10843 4.0 26 7 2 6 24% 10752 80121 15710 53%
c v 15.76 25 310 0 15 4000 31 41250 10333 4.0 26 7 2 6 24% 10753 80121 15710 53%
c w 15.84 25 310 0 15 4000 31 41250 10327 4.0 26 7 2 6 24% 10753 80121 15710 53%
c x 15.91 25 310 0 15 4000 31 41250 10326 4.0 26 7 2 6 24% 10758 79124 15710 53%
c d 15.92 25 310 0 15 4000 31 41250 10324 4.0 26 7 2 6 24% 10752 79124 15707 53%
c t 15.94 25 310 0 15 4000 31 41250 10324 4.0 26 7 2 6 24% 10749 79124 15707 53%
c - 16.05 25 310 0 16 4047 31 41471 9333 4.0 27 7 2 6 24% 10749 79124 15707 53%
c - 16.95 25 301 0 17 4390 31 45471 11376 4.0 27 7 2 6 24% 10851 79123 15707 53%
c - 17.44 25 293 0 18 4568 30 49594 13408 3.9 26 7 2 6 23% 11001 79122 15707 53%
c s 17.91 25 287 0 18 4738 30 52123 15586 3.9 25 7 2 6 23% 11068 76741 15707 53%
c e 18.03 25 287 0 18 4738 30 52123 15586 3.9 25 7 2 6 23% 10155 77939 15219 52%
c s 18.03 25 287 0 18 4738 30 52123 15586 3.9 25 7 2 6 23% 10162 77393 15219 52%
c
c  seconds   switched     rate         size/glue tier1    binary          remaining
c         MB   reductions   conflicts        size  tier2      irredundant
c           level   restarts      redundant    glue   trail          variables
c
c e 18.05 25 287 0 18 4738 30 52123 15586 3.9 25 7 2 6 23% 10145 77416 15211 52%
c ^ 18.05 25 287 0 18 4738 30 52123 15586 3.9 25 7 2 6 23% 10145 77416 15211 52%
c - 18.26 25 281 0 19 4819 29 53836 13998 3.8 25 6 2 6 23% 10201 77415 15211 52%
c - 18.92 25 277 0 20 5095 29 58195 13860 3.8 25 6 1 5 23% 10330 77413 15211 52%
c c 19.12 25 277 0 20 5159 28 58882 14466 3.8 24 6 1 5 23% 10523 76170 15030 51%
c d 19.13 25 277 0 20 5159 28 58882 14052 3.8 24 6 1 5 23% 10161 76170 15030 51%
c u 19.18 25 277 0 20 5159 28 58882 12586 3.8 24 6 1 5 23% 10177 76170 15030 51%
c v 19.26 25 277 0 20 5159 28 58882 10633 3.8 24 6 1 5 23% 10201 76170 15030 51%
c w 19.33 25 277 0 20 5159 28 58882 10464 3.8 24 6 1 5 23% 10202 76170 15030 51%
c x 19.41 25 277 0 20 5159 28 58882 10463 3.8 24 6 1 5 23% 10221 75504 15030 51%
c = 19.67 25 277 0 20 5159 28 58882 10463 3.8 24 6 1 5 23% 10265 75500 15008 51%
c d 19.68 25 277 0 20 5159 28 58882 10450 3.8 24 6 1 5 23% 10183 75500 14990 51%
c t 19.70 25 277 0 20 5159 28 58882 10450 3.8 24 6 1 5 23% 10150 75500 14990 51%
c f 19.73 25 277 0 20 5159 28 58882 10450 3.8 24 6 1 5 23% 10154 75459 14996 51%
c c 19.80 25 277 0 20 5159 28 58882 10433 3.8 24 6 1 5 23% 10168 75411 14990 51%
c d 19.81 25 277 0 20 5159 28 58882 10433 3.8 24 6 1 5 23% 10156 75411 14990 51%
c u 19.86 25 277 0 20 5159 28 58882 10143 3.8 24 6 1 5 23% 10162 75411 14990 51%
c v 19.91 25 277 0 20 5159 28 58882 9718 3.8 24 6 1 5 23% 10169 75411 14990 51%
c w 19.97 25 277 0 20 5159 28 58882 9684 3.8 24 6 1 5 23% 10169 75411 14990 51%
c x 20.09 25 277 0 20 5159 28 58882 9682 3.8 24 6 1 5 23% 10188 74948 14990 51%
c
c  seconds   switched     rate        size/glue tier1    binary          remaining
c         MB   reductions   conflicts       size  tier2      irredundant
c           level   restarts     redundant    glue   trail          variables
c
c = 20.35 25 277 0 20 5159 28 58882 9682 3.8 24 6 1 5 23% 10476 74948 14846 51%
c d 20.36 25 277 0 20 5159 28 58882 9595 3.8 24 6 1 5 23% 10167 74948 14843 51%
c t 20.38 25 277 0 20 5159 28 58882 9595 3.8 24 6 1 5 23% 10145 74948 14843 51%
c f 20.39 25 277 0 20 5159 28 58882 9595 3.8 24 6 1 5 23% 10151 74923 14846 51%
c - 21.00 25 270 0 21 5490 28 62672 10601 3.7 24 6 1 6 22% 10246 74920 14846 51%
c - 22.26 25 264 0 22 6042 28 67255 12517 3.7 24 7 1 5 23% 10335 74918 14846 51%
c o 23.14 25 258 0 22 6451 28 70218 15262 3.7 25 7 1 5 23% 10366 74918 14846 51%
c - 23.73 25 257 0 23 6710 29 71946 14108 3.7 25 7 1 5 23% 10414 74918 14846 51%
c - 25.24 25 250 0 24 7328 29 76741 15381 3.8 26 7 1 5 23% 10513 74915 14846 51%
c d 26.38 25 249 0 24 7807 30 79951 18160 3.8 27 7 1 5 24% 10257 74914 14700 50%
c u 26.45 25 249 0 24 7807 30 79951 16090 3.8 27 7 1 5 24% 10284 74914 14700 50%
c v 26.55 25 249 0 24 7807 30 79951 13648 3.8 27 7 1 5 24% 10306 74914 14700 50%
c w 26.81 25 249 0 24 7807 30 79951 13635 3.8 27 7 1 5 24% 10306 74914 14700 50%
c x 26.95 25 249 0 24 7807 30 79951 13634 3.8 27 7 1 5 24% 10313 73287 14700 50%
c = 27.32 25 249 0 24 7807 30 79951 13634 3.8 27 7 1 5 24% 11399 73287 14157 48%
c d 27.33 25 249 0 24 7807 30 79951 13386 3.8 27 7 1 5 24% 10218 73287 14143 48%
c t 27.35 25 249 0 24 7807 30 79951 13386 3.8 27 7 1 5 24% 10106 73287 14143 48%
c f 27.38 25 249 0 24 7807 30 79951 13386 3.8 27 7 1 5 24% 10125 73155 14162 48%
c c 27.46 25 249 0 24 7807 30 79951 13330 3.8 27 7 1 5 24% 10175 72967 14137 48%
c d 27.46 25 249 0 24 7807 30 79951 13330 3.8 27 7 1 5 24% 10125 72967 14137 48%
c
c  seconds   switched     rate         size/glue tier1    binary          remaining
c         MB   reductions   conflicts        size  tier2      irredundant
c           level   restarts      redundant    glue   trail          variables
c
c u 27.53 25 249 0 24 7807 30 79951 12698 3.8 27 7 1 5 24% 10125 72967 14137 48%
c v 27.60 25 249 0 24 7807 30 79951 12188 3.8 27 7 1 5 24% 10131 72967 14137 48%
c w 27.91 25 249 0 24 7807 30 79951 12074 3.8 27 7 1 5 24% 10131 72967 14137 48%
c x 28.07 25 249 0 24 7807 30 79951 12074 3.8 27 7 1 5 24% 10133 69154 14137 48%
c = 28.67 25 249 0 24 7807 30 79951 12074 3.8 27 7 1 5 24% 11077 69084 13657 46%
c d 28.68 25 249 0 24 7807 30 79951 11873 3.8 27 7 1 5 24% 10041 69084 13656 46%
c t 28.71 25 249 0 24 7807 30 79951 11873 3.8 27 7 1 5 24% 9925 69084 13656 46%
c f 28.73 25 249 0 24 7807 30 79951 11873 3.8 27 7 1 5 24% 9944 68975 13670 47%
c - 29.19 25 246 0 25 7989 29 81639 11389 3.8 27 7 1 5 24% 9951 68970 13670 47%
c - 30.24 25 240 0 26 8453 29 86639 13615 3.7 27 7 1 5 24% 10005 68965 13670 47%
c - 31.11 25 236 0 27 8833 28 91739 15460 3.7 26 7 1 5 24% 10062 68959 13670 47%
c s 31.94 25 231 0 27 9219 28 95799 19039 3.6 26 7 1 5 24% 10118 66936 13670 47%
c e 32.07 25 231 0 27 9219 28 95799 19039 3.6 26 7 1 5 24% 6560 75300 11894 40%
c 2 32.07 25 231 0 27 9219 28 95799 19039 3.6 26 7 1 5 24% 6553 75300 11894 40%
c s 32.10 25 231 0 27 9219 28 95799 19039 3.6 26 7 1 5 24% 6575 74709 11894 40%
c e 32.12 25 231 0 27 9219 28 95799 19039 3.6 26 7 1 5 24% 6521 74837 11867 40%
c ^ 32.12 25 231 0 27 9219 28 95799 19039 3.6 26 7 1 5 24% 6521 74837 11867 40%
c - 32.44 25 229 0 28 9374 28 96937 12344 3.6 26 7 1 5 24% 6527 74837 11867 40%
c - 33.41 25 225 0 29 9787 27 102228 14668 3.6 26 7 1 5 24% 6571 74837 11867 40%
c c 33.94 25 222 0 29 10002 27 104599 16769 3.5 26 7 1 5 24% 6684 74304 11794 40%
c
c  seconds   switched      rate          size/glue tier1    binary         remaining
c         MB   reductions    conflicts         size  tier2     irredundant
c           level   restarts        redundant    glue   trail         variables
c
c d 33.94 25 222 0 29 10002 27 104599 16501 3.5 26 7 1 5 24% 6538 74304 11794 40%
c u 34.01 25 222 0 29 10002 27 104599 14586 3.5 26 7 1 5 24% 6556 74304 11794 40%
c v 34.11 25 222 0 29 10002 27 104599 12472 3.5 26 7 1 5 24% 6561 74304 11794 40%
c w 34.28 25 222 0 29 10002 27 104599 12443 3.5 26 7 1 5 24% 6561 74304 11794 40%
c x 34.39 25 222 0 29 10002 27 104599 12442 3.5 26 7 1 5 24% 6567 74108 11794 40%
c = 34.88 25 222 0 29 10002 27 104599 12442 3.5 26 7 1 5 24% 6904 74073 11624 40%
c d 34.89 25 222 0 29 10002 27 104599 11956 3.5 26 7 1 5 24% 6530 74073 11624 40%
c t 34.90 25 222 0 29 10002 27 104599 11956 3.5 26 7 1 5 24% 6471 74073 11624 40%
c f 34.98 25 222 0 29 10002 27 104599 11956 3.5 26 7 1 5 24% 6504 73838 11644 40%
c u 35.08 25 222 0 29 10002 27 104599 11417 3.5 26 7 1 5 24% 6501 73838 11644 40%
c v 35.13 25 222 0 29 10002 27 104599 10916 3.5 26 7 1 5 24% 6505 73838 11644 40%
c w 35.36 25 222 0 29 10002 27 104599 10585 3.5 26 7 1 5 24% 6505 73838 11644 40%
c t 35.86 25 222 0 29 10002 27 104599 10585 3.5 26 7 1 5 24% 6503 73838 11644 40%
c - 36.49 25 220 0 30 10266 26 107615 11398 3.5 26 7 1 5 24% 6513 73838 11644 40%
c o 37.37 25 217 0 30 10645 27 110221 13910 3.5 26 8 1 5 24% 6517 73838 11644 40%
c i 37.71 25 215 0 30 10774 26 112041 15593 3.5 26 8 1 5 24% 6534 73838 11642 40%
c i 37.82 25 215 0 30 10814 26 112420 15934 3.5 26 8 1 5 24% 6537 73838 11641 40%
c i 37.83 25 215 0 30 10818 26 112590 16087 3.5 26 8 1 5 24% 6543 73838 11640 40%
c i 37.99 25 214 0 30 10871 26 113089 16566 3.5 26 8 1 5 24% 6543 73838 11639 40%
c - 37.99 25 214 0 31 10871 26 113092 14088 3.5 26 8 1 5 24% 6519 73838 11639 40%
c
c  seconds   switched      rate          size/glue tier1    binary         remaining
c         MB   reductions    conflicts         size  tier2     irredundant
c           level   restarts        redundant    glue   trail         variables
c
c i 38.04 25 214 0 31 10894 26 113196 14179 3.5 26 8 1 5 24% 6523 73838 11638 40%
c i 38.17 25 214 0 31 10939 26 113682 14623 3.5 26 8 1 5 24% 6530 73838 11637 40%
c i 38.67 25 213 0 31 11141 26 115182 16004 3.5 26 8 1 5 25% 6545 73838 11636 40%
c i 38.74 25 212 0 31 11163 26 115869 16548 3.5 26 8 1 5 24% 6558 73838 11635 40%
c i 38.92 25 211 0 31 11225 26 116555 17189 3.5 26 8 1 5 25% 6561 73838 11634 40%
c i 38.92 25 211 0 31 11225 26 116562 17189 3.5 26 8 1 5 25% 6563 73838 11633 40%
c i 38.98 25 211 0 31 11240 26 116727 17343 3.5 26 8 1 5 25% 6565 73838 11632 40%
c i 39.27 25 210 0 31 11333 26 117732 18272 3.5 26 8 1 5 25% 6572 73838 11631 40%
c - 39.45 25 209 0 32 11402 26 118659 16023 3.4 26 8 1 5 25% 6546 73838 11631 40%
c i 39.80 25 207 0 32 11558 26 119747 17033 3.4 26 8 1 5 25% 6559 73838 11630 40%
c i 39.92 25 207 0 32 11609 26 120122 17388 3.4 26 8 1 5 25% 6562 73838 11626 40%
c i 40.29 25 206 0 32 11760 26 121190 18414 3.4 26 8 1 5 25% 6566 73838 11624 40%
c i 40.31 25 206 0 32 11766 26 121373 18580 3.4 26 8 1 5 25% 6567 73838 11623 40%
c i 40.38 25 204 0 32 11785 26 122072 19178 3.4 26 8 1 5 25% 6571 73838 11622 40%
c i 40.46 25 204 0 32 11824 26 122400 19480 3.4 26 8 1 5 25% 6573 73836 11621 40%
c i 40.66 25 202 0 32 11883 25 123358 20369 3.4 26 8 1 5 25% 6577 73836 11620 40%
c i 40.80 25 201 0 32 11938 25 124001 20970 3.4 26 8 1 5 25% 6579 73836 11619 40%
c - 40.86 25 201 0 33 11951 25 124316 17253 3.4 26 8 1 5 25% 6552 73836 11619 40%
c i 41.20 25 199 0 33 12081 25 126176 18977 3.3 26 8 1 5 25% 6575 73835 11617 40%
c i 41.26 25 199 0 33 12100 25 126399 19184 3.3 26 8 1 5 25% 6576 73835 11616 40%
c
c  seconds   switched      rate          size/glue tier1    binary         remaining
c         MB   reductions    conflicts         size  tier2     irredundant
c           level   restarts        redundant    glue   trail         variables
c
c i 41.31 25 198 0 33 12132 25 126590 19350 3.3 26 8 1 5 25% 6581 73835 11613 40%
c i 41.52 25 197 0 33 12216 25 127539 20230 3.3 26 8 1 5 25% 6588 73835 11612 40%
c i 41.54 25 197 0 33 12223 25 127628 20315 3.3 26 8 1 5 25% 6589 73835 11611 40%
c i 41.75 25 195 0 33 12327 25 128803 21419 3.3 26 8 1 5 25% 6593 73835 11608 40%
c i 41.78 25 195 0 33 12336 25 129003 21595 3.3 26 8 1 5 25% 6595 73835 11606 40%
c i 41.79 25 195 0 33 12357 25 129223 21779 3.3 25 8 1 5 25% 6600 73835 11605 40%
c i 41.80 25 194 0 33 12362 25 129427 21960 3.3 25 8 1 5 25% 6605 73835 11604 40%
c - 41.85 25 193 0 34 12392 24 130060 18044 3.3 25 8 1 5 25% 6582 73834 11604 40%
c i 41.86 25 193 0 34 12397 24 130223 18194 3.3 25 8 1 5 25% 6582 73834 11603 40%
c i 41.87 25 192 0 34 12412 24 130410 18339 3.3 25 8 1 5 25% 6587 73834 11602 40%
c i 41.88 25 191 0 34 12428 24 130939 18787 3.3 25 8 1 5 25% 6611 73833 11601 39%
c i 41.88 25 191 0 34 12428 24 130950 18788 3.3 25 8 1 5 25% 6614 73833 11598 39%
c } 41.88 25 191 0 34 12428 24 130954 18788 3.3 25 8 1 5 25% 6616 73833 11572 39%
c 0 41.88 25 191 0 34 12428 24 130954 18788 3.3 25 8 1 5 25% 6616 73833 11572 39%
c
c ---- [ result ] ------------------------------------------------------------
c
s UNSATISFIABLE
c
c ---- [ profiling ] ---------------------------------------------------------
c
c          30.22   72.16 %  search
c          30.22   72.16 %  focused
c          11.12   26.56 %  simplify
c          10.63   25.38 %  probe
c           4.18    9.98 %  vivify
c           4.16    9.94 %  sweep
c           0.79    1.89 %  factor
c           0.75    1.78 %  eliminate
c           0.70    1.67 %  congruence
c           0.57    1.35 %  substitute
c           0.47    1.13 %  preprocess
c           0.23    0.55 %  reduce
c           0.21    0.51 %  fastel
c           0.15    0.37 %  transitive
c           0.14    0.33 %  subsume
c           0.08    0.18 %  backbone
c           0.04    0.10 %  lucky
c           0.02    0.05 %  parse
c =============================================
c          41.88  100.00 %  total
c
c ---- [ statistics ] --------------------------------------------------------
c
c chronological:                         6390                5 %  conflicts
c conflicts:                           130954             3126.70 per second
c congruent:                             2916               10 %  variables
c decisions:                          3243316               24.77 per conflict
c eliminated:                           14091               48 %  variables
c factored:                              5918               20 %  variables
c fast_eliminated:                       9115               65 %  eliminated
c fast_strengthened:                       80                5 %  per strengthened
c fast_subsumed:                           64                0 %  per subsumed
c iterations:                              40                0 %  variables
c propagations:                     120453052          2875975    per second
c reductions:                              34             3852    interval
c reordered:                                5            26191    interval
c restarts:                             12428               11    interval
c strengthened:                          1567                0 %  checks
c substituted:                           9526               32 %  variables
c subsumed:                             13447                1 %  checks
c switched:                                 0                0    interval
c vivified:                             59728               12 %  checks
c
c ---- [ glue usage ] --------------------------------------------------------
c
c focused glue 1 used 175596 clauses 57.01% accumulated 57.01% tier1
c focused glue 2 used  65172 clauses 21.16% accumulated 78.17%
c focused glue 3 used  19839 clauses  6.44% accumulated 84.61%
c focused glue 4 used  11788 clauses  3.83% accumulated 88.44%
c focused glue 5 used   7735 clauses  2.51% accumulated 90.95% tier2
c
c ---- [ resources ] ---------------------------------------------------------
c
c maximum-resident-set-size:         26357760 bytes         25 MB
c process-time:                            42s              41.88 seconds
c
c ---- [ shutting down ] -----------------------------------------------------
c
c exit 20
